AES/1_5_4/ssaes_r1-20_c5_rw1_e4_f0_k1-20_aes_1base_box_aes_mc_bidirectional/ExperimentMinisat_r16_k3cnf_2011-10-29-193701/Result
WARNING: for repeatability, setting FPU to use double precision
============================[ Problem Statistics ]=============================
|                                                                             |
|  Number of variables:          1468                                         |
|  Number of clauses:            6512                                         |
|  Parse time:                   0.00 s                                       |
|  Eliminated clauses:           0.02 Mb                                      |
|  Simplification time:          0.00 s                                       |
|                                                                             |
=============================[ Search Statistics ]==============================
| Conflicts  |          ORIGINAL         |          LEARNT          | Progress |
|            |    Vars  Clauses Literals |    Limit  Clauses Lit/Cl |          |
================================================================================
|        100 |    1024     5112    16736 |     1874      100     23 |  7.085 % |
|        250 |    1024     5112    16736 |     2061      250     23 |  7.085 % |
|        475 |    1024     5112    16736 |     2268      475     25 |  7.085 % |
|        812 |    1024     5112    16736 |     2494      812     25 |  7.085 % |
|       1318 |    1024     5112    16736 |     2744     1318     27 |  7.085 % |
|       2077 |    1024     5112    16736 |     3018     2077     27 |  7.085 % |
|       3216 |    1024     5112    16736 |     3320     1622     23 |  7.085 % |
|       4924 |    1024     5112    16736 |     3652     3330     23 |  7.085 % |
|       7486 |    1024     5112    16736 |     4017     2071     18 |  7.085 % |
|      11330 |    1024     5112    16736 |     4419     3836     20 |  7.085 % |
|      17096 |    1024     5112    16736 |     4861     2770     17 |  7.085 % |
|      25745 |    1024     5112    16736 |     5347     3898     18 |  7.085 % |
|      38719 |    1024     5112    16736 |     5882     3127     17 |  7.085 % |
|      58180 |    1024     5112    16736 |     6470     4485     19 |  7.085 % |
|      87372 |    1024     5112    16736 |     7118     3885     17 |  7.085 % |
|     131161 |    1024     5112    16736 |     7829     4136     16 |  7.085 % |
|     196845 |    1024     5112    16736 |     8612     5994     16 |  7.085 % |
|     295371 |    1024     5112    16736 |     9474     8180     20 |  7.085 % |
|     443160 |    1024     5112    16736 |    10421     6867     19 |  7.085 % |
|     664843 |    1024     5112    16736 |    11463     6808     17 |  7.085 % |
|     997368 |    1024     5112    16736 |    12610     8595     16 |  7.085 % |
|    1496156 |    1024     5112    16736 |    13871    10120     18 |  7.085 % |
|    2244338 |    1024     5112    16736 |    15258     8597     18 |  7.085 % |
|    3366612 |    1024     5112    16736 |    16783    14346     20 |  7.085 % |
===============================================================================
restarts              : 8188
conflicts             : 4589245        (8968 /sec)
decisions             : 5040555        (0.00 % random) (9850 /sec)
propagations          : 2206657329     (4311998 /sec)
conflict literals     : 102092700      (53.97 % deleted)
Memory used           : 14.00 MB
CPU time              : 511.748 s

SATISFIABLE
